4 5
92 75 77 95 
0 46 40 65 58 76 77 87 95 98 95 17 61 41 100 70 6 97 18 6 76 3
1 85 92 32 27 79 69 5 4 30 93 73 48 83 4 38 87 89 17 53 11 2
2 30 34 15 5 69 75 54 46 89 54 49 52 55 99 11 75 94 20 56 17 3
3 12 11 63 58 20 12 58 59 42 2 92 60 6 75 11 68 95 70 16 23 3
4 29 24 83 75 29 25 75 76 26 89 65 82 8 51 2 93 36 45 49 30 4
